(set-logic BV) (define-fun origCir ((n719 Bool) (n721 Bool) (n727 Bool) (n715 Bool) (n708 Bool)) Bool (and (and (not (and n727 (and (not n715) (not n708)))) (not (and (not n721) n719))) (not n708))) (synth-fun skel ((n719 Bool) (n721 Bool) (n727 Bool) (n715 Bool) (n708 Bool)) Bool) (declare-var n719 Bool) (declare-var n721 Bool) (declare-var n727 Bool) (declare-var n715 Bool) (declare-var n708 Bool) (constraint (= (origCir n719 n721 n727 n715 n708) (skel n719 n721 n727 n715 n708))) (check-synth)
